p cnf 170 725
1 2 3 4 5 6 7 8 9  0
-10 1 0
10 -1 0
-11 10 2 0
11 -10 0
11 -2 0
-12 11 3 0
12 -11 0
12 -3 0
-13 12 4 0
13 -12 0
13 -4 0
-14 13 5 0
14 -13 0
14 -5 0
-15 14 6 0
15 -14 0
15 -6 0
-16 15 7 0
16 -15 0
16 -7 0
-17 16 8 0
17 -16 0
17 -8 0
-10 -2 0
-11 -3 0
-12 -4 0
-13 -5 0
-14 -6 0
-15 -7 0
-16 -8 0
-17 -9 0
18 19 20 21 22 23 24 25 26  0
-27 18 0
27 -18 0
-28 27 19 0
28 -27 0
28 -19 0
-29 28 20 0
29 -28 0
29 -20 0
-30 29 21 0
30 -29 0
30 -21 0
-31 30 22 0
31 -30 0
31 -22 0
-32 31 23 0
32 -31 0
32 -23 0
-33 32 24 0
33 -32 0
33 -24 0
-34 33 25 0
34 -33 0
34 -25 0
-27 -19 0
-28 -20 0
-29 -21 0
-30 -22 0
-31 -23 0
-32 -24 0
-33 -25 0
-34 -26 0
35 36 37 38 39 40 41 42 43  0
-44 35 0
44 -35 0
-45 44 36 0
45 -44 0
45 -36 0
-46 45 37 0
46 -45 0
46 -37 0
-47 46 38 0
47 -46 0
47 -38 0
-48 47 39 0
48 -47 0
48 -39 0
-49 48 40 0
49 -48 0
49 -40 0
-50 49 41 0
50 -49 0
50 -41 0
-51 50 42 0
51 -50 0
51 -42 0
-44 -36 0
-45 -37 0
-46 -38 0
-47 -39 0
-48 -40 0
-49 -41 0
-50 -42 0
-51 -43 0
52 53 54 55 56 57 58 59 60  0
-61 52 0
61 -52 0
-62 61 53 0
62 -61 0
62 -53 0
-63 62 54 0
63 -62 0
63 -54 0
-64 63 55 0
64 -63 0
64 -55 0
-65 64 56 0
65 -64 0
65 -56 0
-66 65 57 0
66 -65 0
66 -57 0
-67 66 58 0
67 -66 0
67 -58 0
-68 67 59 0
68 -67 0
68 -59 0
-61 -53 0
-62 -54 0
-63 -55 0
-64 -56 0
-65 -57 0
-66 -58 0
-67 -59 0
-68 -60 0
69 70 71 72 73 74 75 76 77  0
-78 69 0
78 -69 0
-79 78 70 0
79 -78 0
79 -70 0
-80 79 71 0
80 -79 0
80 -71 0
-81 80 72 0
81 -80 0
81 -72 0
-82 81 73 0
82 -81 0
82 -73 0
-83 82 74 0
83 -82 0
83 -74 0
-84 83 75 0
84 -83 0
84 -75 0
-85 84 76 0
85 -84 0
85 -76 0
-78 -70 0
-79 -71 0
-80 -72 0
-81 -73 0
-82 -74 0
-83 -75 0
-84 -76 0
-85 -77 0
86 87 88 89 90 91 92 93 94  0
-95 86 0
95 -86 0
-96 95 87 0
96 -95 0
96 -87 0
-97 96 88 0
97 -96 0
97 -88 0
-98 97 89 0
98 -97 0
98 -89 0
-99 98 90 0
99 -98 0
99 -90 0
-100 99 91 0
100 -99 0
100 -91 0
-101 100 92 0
101 -100 0
101 -92 0
-102 101 93 0
102 -101 0
102 -93 0
-95 -87 0
-96 -88 0
-97 -89 0
-98 -90 0
-99 -91 0
-100 -92 0
-101 -93 0
-102 -94 0
103 104 105 106 107 108 109 110 111  0
-112 103 0
112 -103 0
-113 112 104 0
113 -112 0
113 -104 0
-114 113 105 0
114 -113 0
114 -105 0
-115 114 106 0
115 -114 0
115 -106 0
-116 115 107 0
116 -115 0
116 -107 0
-117 116 108 0
117 -116 0
117 -108 0
-118 117 109 0
118 -117 0
118 -109 0
-119 118 110 0
119 -118 0
119 -110 0
-112 -104 0
-113 -105 0
-114 -106 0
-115 -107 0
-116 -108 0
-117 -109 0
-118 -110 0
-119 -111 0
120 121 122 123 124 125 126 127 128  0
-129 120 0
129 -120 0
-130 129 121 0
130 -129 0
130 -121 0
-131 130 122 0
131 -130 0
131 -122 0
-132 131 123 0
132 -131 0
132 -123 0
-133 132 124 0
133 -132 0
133 -124 0
-134 133 125 0
134 -133 0
134 -125 0
-135 134 126 0
135 -134 0
135 -126 0
-136 135 127 0
136 -135 0
136 -127 0
-129 -121 0
-130 -122 0
-131 -123 0
-132 -124 0
-133 -125 0
-134 -126 0
-135 -127 0
-136 -128 0
137 138 139 140 141 142 143 144 145  0
-146 137 0
146 -137 0
-147 146 138 0
147 -146 0
147 -138 0
-148 147 139 0
148 -147 0
148 -139 0
-149 148 140 0
149 -148 0
149 -140 0
-150 149 141 0
150 -149 0
150 -141 0
-151 150 142 0
151 -150 0
151 -142 0
-152 151 143 0
152 -151 0
152 -143 0
-153 152 144 0
153 -152 0
153 -144 0
-146 -138 0
-147 -139 0
-148 -140 0
-149 -141 0
-150 -142 0
-151 -143 0
-152 -144 0
-153 -145 0
154 155 156 157 158 159 160 161 162  0
-163 154 0
163 -154 0
-164 163 155 0
164 -163 0
164 -155 0
-165 164 156 0
165 -164 0
165 -156 0
-166 165 157 0
166 -165 0
166 -157 0
-167 166 158 0
167 -166 0
167 -158 0
-168 167 159 0
168 -167 0
168 -159 0
-169 168 160 0
169 -168 0
169 -160 0
-170 169 161 0
170 -169 0
170 -161 0
-163 -155 0
-164 -156 0
-165 -157 0
-166 -158 0
-167 -159 0
-168 -160 0
-169 -161 0
-170 -162 0
-18 -1 0
-35 -1 0
-35 -18 0
-52 -1 0
-52 -18 0
-52 -35 0
-69 -1 0
-69 -18 0
-69 -35 0
-69 -52 0
-86 -1 0
-86 -18 0
-86 -35 0
-86 -52 0
-86 -69 0
-103 -1 0
-103 -18 0
-103 -35 0
-103 -52 0
-103 -69 0
-103 -86 0
-120 -1 0
-120 -18 0
-120 -35 0
-120 -52 0
-120 -69 0
-120 -86 0
-120 -103 0
-137 -1 0
-137 -18 0
-137 -35 0
-137 -52 0
-137 -69 0
-137 -86 0
-137 -103 0
-137 -120 0
-154 -1 0
-154 -18 0
-154 -35 0
-154 -52 0
-154 -69 0
-154 -86 0
-154 -103 0
-154 -120 0
-154 -137 0
-19 -2 0
-36 -2 0
-36 -19 0
-53 -2 0
-53 -19 0
-53 -36 0
-70 -2 0
-70 -19 0
-70 -36 0
-70 -53 0
-87 -2 0
-87 -19 0
-87 -36 0
-87 -53 0
-87 -70 0
-104 -2 0
-104 -19 0
-104 -36 0
-104 -53 0
-104 -70 0
-104 -87 0
-121 -2 0
-121 -19 0
-121 -36 0
-121 -53 0
-121 -70 0
-121 -87 0
-121 -104 0
-138 -2 0
-138 -19 0
-138 -36 0
-138 -53 0
-138 -70 0
-138 -87 0
-138 -104 0
-138 -121 0
-155 -2 0
-155 -19 0
-155 -36 0
-155 -53 0
-155 -70 0
-155 -87 0
-155 -104 0
-155 -121 0
-155 -138 0
-20 -3 0
-37 -3 0
-37 -20 0
-54 -3 0
-54 -20 0
-54 -37 0
-71 -3 0
-71 -20 0
-71 -37 0
-71 -54 0
-88 -3 0
-88 -20 0
-88 -37 0
-88 -54 0
-88 -71 0
-105 -3 0
-105 -20 0
-105 -37 0
-105 -54 0
-105 -71 0
-105 -88 0
-122 -3 0
-122 -20 0
-122 -37 0
-122 -54 0
-122 -71 0
-122 -88 0
-122 -105 0
-139 -3 0
-139 -20 0
-139 -37 0
-139 -54 0
-139 -71 0
-139 -88 0
-139 -105 0
-139 -122 0
-156 -3 0
-156 -20 0
-156 -37 0
-156 -54 0
-156 -71 0
-156 -88 0
-156 -105 0
-156 -122 0
-156 -139 0
-21 -4 0
-38 -4 0
-38 -21 0
-55 -4 0
-55 -21 0
-55 -38 0
-72 -4 0
-72 -21 0
-72 -38 0
-72 -55 0
-89 -4 0
-89 -21 0
-89 -38 0
-89 -55 0
-89 -72 0
-106 -4 0
-106 -21 0
-106 -38 0
-106 -55 0
-106 -72 0
-106 -89 0
-123 -4 0
-123 -21 0
-123 -38 0
-123 -55 0
-123 -72 0
-123 -89 0
-123 -106 0
-140 -4 0
-140 -21 0
-140 -38 0
-140 -55 0
-140 -72 0
-140 -89 0
-140 -106 0
-140 -123 0
-157 -4 0
-157 -21 0
-157 -38 0
-157 -55 0
-157 -72 0
-157 -89 0
-157 -106 0
-157 -123 0
-157 -140 0
-22 -5 0
-39 -5 0
-39 -22 0
-56 -5 0
-56 -22 0
-56 -39 0
-73 -5 0
-73 -22 0
-73 -39 0
-73 -56 0
-90 -5 0
-90 -22 0
-90 -39 0
-90 -56 0
-90 -73 0
-107 -5 0
-107 -22 0
-107 -39 0
-107 -56 0
-107 -73 0
-107 -90 0
-124 -5 0
-124 -22 0
-124 -39 0
-124 -56 0
-124 -73 0
-124 -90 0
-124 -107 0
-141 -5 0
-141 -22 0
-141 -39 0
-141 -56 0
-141 -73 0
-141 -90 0
-141 -107 0
-141 -124 0
-158 -5 0
-158 -22 0
-158 -39 0
-158 -56 0
-158 -73 0
-158 -90 0
-158 -107 0
-158 -124 0
-158 -141 0
-23 -6 0
-40 -6 0
-40 -23 0
-57 -6 0
-57 -23 0
-57 -40 0
-74 -6 0
-74 -23 0
-74 -40 0
-74 -57 0
-91 -6 0
-91 -23 0
-91 -40 0
-91 -57 0
-91 -74 0
-108 -6 0
-108 -23 0
-108 -40 0
-108 -57 0
-108 -74 0
-108 -91 0
-125 -6 0
-125 -23 0
-125 -40 0
-125 -57 0
-125 -74 0
-125 -91 0
-125 -108 0
-142 -6 0
-142 -23 0
-142 -40 0
-142 -57 0
-142 -74 0
-142 -91 0
-142 -108 0
-142 -125 0
-159 -6 0
-159 -23 0
-159 -40 0
-159 -57 0
-159 -74 0
-159 -91 0
-159 -108 0
-159 -125 0
-159 -142 0
-24 -7 0
-41 -7 0
-41 -24 0
-58 -7 0
-58 -24 0
-58 -41 0
-75 -7 0
-75 -24 0
-75 -41 0
-75 -58 0
-92 -7 0
-92 -24 0
-92 -41 0
-92 -58 0
-92 -75 0
-109 -7 0
-109 -24 0
-109 -41 0
-109 -58 0
-109 -75 0
-109 -92 0
-126 -7 0
-126 -24 0
-126 -41 0
-126 -58 0
-126 -75 0
-126 -92 0
-126 -109 0
-143 -7 0
-143 -24 0
-143 -41 0
-143 -58 0
-143 -75 0
-143 -92 0
-143 -109 0
-143 -126 0
-160 -7 0
-160 -24 0
-160 -41 0
-160 -58 0
-160 -75 0
-160 -92 0
-160 -109 0
-160 -126 0
-160 -143 0
-25 -8 0
-42 -8 0
-42 -25 0
-59 -8 0
-59 -25 0
-59 -42 0
-76 -8 0
-76 -25 0
-76 -42 0
-76 -59 0
-93 -8 0
-93 -25 0
-93 -42 0
-93 -59 0
-93 -76 0
-110 -8 0
-110 -25 0
-110 -42 0
-110 -59 0
-110 -76 0
-110 -93 0
-127 -8 0
-127 -25 0
-127 -42 0
-127 -59 0
-127 -76 0
-127 -93 0
-127 -110 0
-144 -8 0
-144 -25 0
-144 -42 0
-144 -59 0
-144 -76 0
-144 -93 0
-144 -110 0
-144 -127 0
-161 -8 0
-161 -25 0
-161 -42 0
-161 -59 0
-161 -76 0
-161 -93 0
-161 -110 0
-161 -127 0
-161 -144 0
-26 -9 0
-43 -9 0
-43 -26 0
-60 -9 0
-60 -26 0
-60 -43 0
-77 -9 0
-77 -26 0
-77 -43 0
-77 -60 0
-94 -9 0
-94 -26 0
-94 -43 0
-94 -60 0
-94 -77 0
-111 -9 0
-111 -26 0
-111 -43 0
-111 -60 0
-111 -77 0
-111 -94 0
-128 -9 0
-128 -26 0
-128 -43 0
-128 -60 0
-128 -77 0
-128 -94 0
-128 -111 0
-145 -9 0
-145 -26 0
-145 -43 0
-145 -60 0
-145 -77 0
-145 -94 0
-145 -111 0
-145 -128 0
-162 -9 0
-162 -26 0
-162 -43 0
-162 -60 0
-162 -77 0
-162 -94 0
-162 -111 0
-162 -128 0
-162 -145 0
